c parsing input formula with 12 variables and 22 clauses
c finished parsing
c detected empty clause; start verification via backward checking
c 22 of 22 clauses in core                            
c 44 of 49 lemmas in core using 89 resolution steps
c 0 RAT lemmas in core; 0 redundant literals in core lemmas
s VERIFIED
c verification time: 0.098 seconds
